; benchmark generated from python API
(set-info :status unknown)
(declare-datatypes ((RealState 0)) (((RMk1 (rval1 Real)) (RMk2 (rval2 Real)))))
 (assert
 (exists ((|v11:0_st| RealState) (val!6172 Real) )(exists ((|v10:1_st| RealState) (val!6173 Real) )(exists ((|v9:2_st| RealState) (val!6174 Real) )(exists ((|v8:3_st| RealState) (val!6175 Real) )(forall ((|v7:4| Real) )(forall ((|v6:5| Real) )(forall ((|v5:6| Real) )(forall ((|v4:7| Real) )(exists ((|v3:8_st| RealState) (val!6176 Real) )(exists ((|v2:9_st| RealState) (val!6177 Real) )(exists ((|v1:10_st| RealState) (val!6178 Real) )(exists ((|v0:11_st| RealState) (val!6179 Real) )(let ((?x233 (+ (+ (* 5.0 (rval2 |v11:0_st|)) (* 15.0 (rval2 |v9:2_st|))) (* (- 8.0) (rval2 |v8:3_st|)))))
 (let ((?x2572 (- 4.0)))
 (let ((?x273 (rval2 |v2:9_st|)))
 (let ((?x2648 (- 8.0)))
 (let ((?x3262 (* ?x2648 ?x273)))
 (let ((?x2429 (+ (+ (+ (* 10.0 |v5:6|) (* 2.0 (rval2 |v9:2_st|))) ?x3262) (* (- 10.0) (rval2 |v10:1_st|)))))
 (let ((?x2804 (* 19.0 |v4:7|)))
 (let ((?x2622 (+ (+ (+ (* (- 3.0) |v7:4|) (* ?x2572 |v4:7|)) (* 8.0 (rval2 |v3:8_st|))) ?x2804)))
 (let ((?x652 (+ (+ (* (- 11.0) (rval2 |v1:10_st|)) (* 14.0 (rval2 |v10:1_st|))) (* (- 9.0) (rval2 |v8:3_st|)))))
 (let (($x2807 (and (and (<= (+ ?x652 (* 17.0 (rval2 |v10:1_st|))) 5.0) (<= ?x2622 15.0)) (and (<= ?x2429 ?x2572) (<= (+ ?x233 (* 20.0 (rval2 |v9:2_st|))) 15.0)))))
 (let ((?x460 (+ (+ (* (- 7.0) (rval2 |v10:1_st|)) (* (- 11.0) (rval2 |v11:0_st|))) (* 14.0 |v4:7|))))
 (let ((?x496 (- 19.0)))
 (let ((?x721 (rval2 |v0:11_st|)))
 (let ((?x581 (* 16.0 ?x721)))
 (let ((?x106 (+ (+ (+ (* 17.0 |v6:5|) (* (- 3.0) |v4:7|)) (* 12.0 |v4:7|)) ?x581)))
 (let (($x1502 (and (<= ?x106 ?x496) (<= (+ ?x460 (* (- 18.0) (rval2 |v3:8_st|))) 19.0))))
 (let ((?x1642 (- 18.0)))
 (let ((?x3147 (rval2 |v9:2_st|)))
 (let ((?x1851 (* 5.0 ?x3147)))
 (let ((?x2962 (+ (+ (+ (* 15.0 |v4:7|) (* (- 2.0) ?x273)) (* 17.0 |v4:7|)) ?x1851)))
 (let ((?x2387 (- 1.0)))
 (let ((?x1780 (* ?x496 |v4:7|)))
 (let ((?x3331 (+ (+ (+ (* (- 13.0) ?x273) (* 13.0 ?x273)) (* (- 20.0) |v7:4|)) ?x1780)))
 (let ((?x1990 (* 4.0 ?x3147)))
 (let ((?x2958 (+ (+ (+ (* 13.0 (rval2 |v11:0_st|)) (* 17.0 ?x721)) (rval2 |v8:3_st|)) ?x1990)))
 (let ((?x1415 (- 15.0)))
 (let ((?x2397 (rval2 |v3:8_st|)))
 (let ((?x71 (- 9.0)))
 (let ((?x671 (* ?x71 ?x2397)))
 (let ((?x2734 (+ (+ (* ?x1642 (rval2 |v8:3_st|)) (* (- 16.0) |v4:7|)) (* (- 17.0) (rval2 |v11:0_st|)))))
 (let ((?x3044 (- 20.0)))
 (let ((?x599 (- 6.0)))
 (let ((?x1993 (* ?x599 |v7:4|)))
 (let ((?x823 (+ (+ (+ (* 9.0 |v4:7|) (* 11.0 (rval2 |v8:3_st|))) (* ?x1415 ?x273)) ?x1993)))
 (let ((?x2072 (- 14.0)))
 (let ((?x1537 (* ?x2572 |v4:7|)))
 (let (($x103 (<= (+ (+ (+ (* ?x496 |v7:4|) (* 17.0 |v6:5|)) (* ?x3044 |v5:6|)) ?x1537) ?x2072)))
 (let (($x1409 (and (and $x103 (<= ?x823 ?x3044)) (and (<= (+ ?x2734 ?x671) ?x1415) (<= ?x2958 10.0)))))
 (let ((?x3071 (rval2 |v8:3_st|)))
 (let ((?x1319 (- 13.0)))
 (let ((?x931 (* ?x1319 ?x3071)))
 (let (($x166 (<= (+ (+ (+ (* 11.0 ?x3071) (* ?x2387 ?x273)) (* ?x2387 |v6:5|)) ?x931) ?x2387)))
 (let ((?x2096 (- 10.0)))
 (let ((?x3426 (* ?x2096 ?x273)))
 (let ((?x646 (+ (+ (+ (* (- 3.0) (rval2 |v10:1_st|)) (* ?x3044 ?x273)) (* 16.0 ?x3147)) ?x3426)))
 (let ((?x2217 (+ (+ (* (- 3.0) (rval2 |v11:0_st|)) (* 12.0 |v5:6|)) (* (- 11.0) ?x3071))))
 (let ((?x3014 (* ?x2387 |v6:5|)))
 (let (($x130 (<= (+ (+ (+ (* 9.0 ?x3071) (* 0.0 (rval2 |v11:0_st|))) ?x671) ?x3014) 16.0)))
 (let (($x1453 (and (and $x130 (<= (+ ?x2217 (* 15.0 ?x3071)) 2.0)) (and (<= ?x646 1.0) $x166))))
 (let (($x1478 (and (and $x1453 $x1409) (and (and (and (<= ?x3331 ?x2387) (<= ?x2962 ?x1642)) $x1502) $x2807))))
 (let ((?x1024 (+ (+ (+ (* 3.0 ?x2397) ?x1537) (* 11.0 |v7:4|)) (* (- 2.0) ?x2397))))
 (let (($x645 (and (<= ?x1024 ?x2572) (<= (+ (+ (+ (* 6.0 |v5:6|) (* ?x2072 |v6:5|)) ?x3147) ?x931) 10.0))))
 (let ((?x2712 (* 2.0 |v6:5|)))
 (let ((?x1250 (+ (+ (+ (* ?x2648 ?x2397) (* (- 16.0) ?x2397)) (* 8.0 (rval2 |v10:1_st|))) ?x2712)))
 (let ((?x1010 (* ?x2096 |v4:7|)))
 (let (($x1490 (<= (+ (+ (+ (* 12.0 ?x3147) (* ?x1319 ?x3147)) (* (- 5.0) ?x721)) ?x1010) ?x2096)))
 (let ((?x1477 (- 5.0)))
 (let ((?x557 (* ?x1477 |v6:5|)))
 (let (($x570 (<= (+ (+ (+ (* ?x1477 |v5:6|) ?x1993) (* (- 3.0) ?x2397)) ?x557) 20.0)))
 (let ((?x187 (+ (+ (+ (* 15.0 |v7:4|) (* 3.0 ?x3147)) (* 4.0 (rval2 |v11:0_st|))) (* (- 11.0) ?x273))))
 (let ((?x638 (* ?x1477 ?x721)))
 (let ((?x1400 (+ (+ (+ (* 17.0 |v5:6|) (* ?x2096 |v7:4|)) (* 12.0 (rval2 |v10:1_st|))) ?x638)))
 (let ((?x3118 (+ (+ (+ ?x2712 (* ?x2072 ?x2397)) (* (- 7.0) |v5:6|)) (* (- 11.0) ?x2397))))
 (let (($x656 (and (and (<= ?x3118 7.0) (<= ?x1400 ?x496)) (or (<= ?x187 19.0) $x570))))
 (let ((?x2250 (rval2 |v10:1_st|)))
 (let ((?x2568 (* ?x599 ?x2250)))
 (let ((?x102 (* 8.0 ?x273)))
 (let ((?x1413 (+ (+ (+ (* 18.0 ?x3147) (* 12.0 ?x2250)) (* ?x1477 (rval2 |v11:0_st|))) ?x102)))
 (let (($x981 (or (<= ?x1413 12.0) (<= (+ (+ (+ (* 17.0 |v4:7|) (* ?x2387 |v5:6|)) ?x1851) ?x2568) 7.0))))
 (let ((?x220 (rval2 |v11:0_st|)))
 (let ((?x2503 (- 3.0)))
 (let ((?x3366 (* ?x2503 ?x220)))
 (let ((?x1656 (+ (+ (+ (* 19.0 ?x2397) (* (- 2.0) ?x3071)) ?x3366) (* (- 16.0) |v5:6|))))
 (let ((?x2953 (+ (+ (+ (* (- 12.0) (rval2 |v1:10_st|)) (* ?x1319 ?x721)) (* 0.0 ?x721)) (* 11.0 ?x2250))))
 (let ((?x1827 (* 8.0 |v4:7|)))
 (let (($x1533 (<= (+ (+ (+ (* ?x599 ?x3147) (* ?x1642 ?x220)) (* 3.0 ?x721)) ?x1827) ?x2096)))
 (let ((?x2410 (* ?x1319 |v5:6|)))
 (let (($x2977 (<= (+ (+ (+ (* 12.0 ?x3071) (* 2.0 ?x273)) (* 4.0 ?x220)) ?x2410) 15.0)))
 (let ((?x1633 (- 7.0)))
 (let ((?x1255 (* ?x1633 |v6:5|)))
 (let (($x508 (<= (+ (+ (+ (* 0.0 |v7:4|) (* ?x2072 ?x2397)) (* 10.0 |v5:6|)) ?x1255) ?x1633)))
 (let ((?x698 (* ?x496 |v5:6|)))
 (let (($x1713 (<= (+ (+ (+ (* 3.0 |v7:4|) (* ?x2072 ?x3071)) (* ?x2096 ?x3147)) ?x698) 6.0)))
 (let (($x753 (and (and (and $x1713 $x508) (and $x2977 $x1533)) (and (and (<= ?x2953 20.0) (<= ?x1656 6.0)) $x981))))
 (let (($x1134 (and (and $x753 (and $x656 (and (or $x1490 (<= ?x1250 ?x1319)) $x645))) $x1478)))
 (let (($x1737 (<= (+ (+ (+ (* (- 16.0) ?x273) ?x3426) (* ?x1642 ?x3147)) (* ?x2648 |v7:4|)) ?x599)))
 (let ((?x3377 (* ?x1633 ?x2250)))
 (let (($x1779 (<= (+ (+ (+ (* ?x2572 |v6:5|) (* 5.0 ?x220)) (* 10.0 ?x220)) ?x3377) 9.0)))
 (let ((?x2071 (+ (+ (+ (* 14.0 |v6:5|) (* 0.0 |v7:4|)) (* (- 11.0) |v7:4|)) (* ?x2503 (rval2 |v1:10_st|)))))
 (let ((?x2385 (* 6.0 ?x273)))
 (let (($x1336 (<= (+ (+ (+ (* 13.0 |v4:7|) (* ?x2096 |v6:5|)) (* 14.0 ?x2250)) ?x2385) 8.0)))
 (let ((?x1709 (- 16.0)))
 (let ((?x651 (* ?x1709 |v4:7|)))
 (let ((?x2398 (+ (+ (+ (* 13.0 (rval2 |v1:10_st|)) (* (- 12.0) ?x220)) (* 3.0 ?x2397)) ?x651)))
 (let (($x2421 (and (<= (+ (+ (+ (* ?x1477 |v5:6|) ?x671) (* 19.0 ?x3147)) ?x1827) 19.0) (<= ?x2398 6.0))))
 (let ((?x1124 (+ (+ (+ (* 5.0 ?x2250) (* 7.0 ?x2250)) (rval2 |v1:10_st|)) (* ?x1709 ?x721))))
 (let ((?x571 (+ (+ (+ (* ?x1415 ?x3147) (* 13.0 ?x721)) (* 3.0 ?x2250)) (* ?x1477 ?x2397))))
 (let (($x2266 (or (and (and (<= ?x571 19.0) (<= ?x1124 12.0)) $x2421) (or (and $x1336 (<= ?x2071 13.0)) (and $x1779 $x1737)))))
 (let (($x2899 (<= (+ (+ (+ |v7:4| (* ?x1642 |v7:4|)) (* 18.0 ?x2250)) (* 17.0 ?x273)) 17.0)))
 (let ((?x2946 (- 12.0)))
 (let ((?x1335 (+ (+ (+ ?x1010 (* 7.0 |v5:6|)) (* 8.0 ?x2250)) (* (- 17.0) ?x2397))))
 (let ((?x3116 (* 3.0 ?x220)))
 (let (($x112 (<= (+ (+ (+ (* (- 2.0) ?x220) (* ?x2387 |v7:4|)) (* ?x2946 |v6:5|)) ?x3116) ?x1642)))
 (let (($x616 (<= (+ (+ (+ ?x1255 (* 6.0 |v4:7|)) (* 2.0 |v7:4|)) (* ?x1415 ?x3071)) 1.0)))
 (let ((?x320 (* 10.0 ?x3071)))
 (let (($x188 (<= (+ (+ (+ (* 10.0 ?x721) (* ?x1415 |v6:5|)) (* 9.0 ?x2397)) ?x320) ?x2503)))
 (let (($x1962 (and (<= (+ (+ (+ (* 9.0 ?x721) (* ?x1642 |v5:6|)) |v7:4|) ?x1255) 19.0) $x188)))
 (let ((?x2749 (- 17.0)))
 (let ((?x1688 (* 19.0 |v7:4|)))
 (let (($x3099 (<= (+ (+ (+ (* 14.0 ?x721) (* (- 2.0) |v6:5|)) (* ?x71 |v6:5|)) ?x1688) ?x2749)))
 (let ((?x685 (* 19.0 ?x2250)))
 (let (($x697 (<= (+ (+ (+ (* ?x2387 ?x2397) (* ?x2096 ?x3147)) (* ?x1415 ?x220)) ?x685) ?x1319)))
 (let (($x1854 (and (and (and $x697 $x3099) $x1962) (and (and $x616 $x112) (and (<= ?x1335 ?x2946) $x2899)))))
 (let (($x3295 (<= (+ (+ (+ (* ?x3044 ?x3071) (* ?x2946 ?x220)) ?x3262) (* 6.0 |v6:5|)) ?x2648)))
 (let ((?x3363 (* 15.0 |v4:7|)))
 (let (($x2709 (<= (+ (+ (+ (* ?x1319 ?x2397) (* ?x2572 ?x3147)) (* 4.0 ?x273)) ?x3363) ?x1709)))
 (let ((?x3247 (+ (+ (+ (* 4.0 ?x721) (* (- 2.0) ?x2250)) (* 9.0 ?x3071)) (* ?x2387 |v4:7|))))
 (let (($x3388 (and (<= ?x3247 ?x2096) (<= (+ (+ (+ ?x2410 ?x3426) (* 14.0 |v5:6|)) (* 8.0 |v7:4|)) 19.0))))
 (let ((?x1943 (+ (+ (+ (* (- 11.0) |v6:5|) (* 7.0 ?x2250)) (* 13.0 ?x721)) ?x685)))
 (let ((?x3138 (rval2 |v1:10_st|)))
 (let ((?x2789 (* 14.0 ?x3138)))
 (let (($x1836 (<= (+ (+ (+ (* ?x496 ?x3071) (* 2.0 ?x273)) (* 0.0 ?x2397)) ?x2789) ?x2946)))
 (let ((?x2165 (+ (+ (+ (* ?x2096 |v7:4|) (* 13.0 |v6:5|)) (* ?x71 ?x220)) (* ?x1633 ?x3071))))
 (let ((?x2386 (* 19.0 |v6:5|)))
 (let (($x2082 (<= (+ (+ (+ (* 10.0 ?x3147) (* 11.0 ?x3071)) (* 11.0 ?x3147)) ?x2386) ?x2072)))
 (let (($x3437 (and (and (and $x2082 (<= ?x2165 ?x2503)) (or $x1836 (<= ?x1943 7.0))) (and $x3388 (or $x2709 $x3295)))))
 (let ((?x3176 (+ (+ (+ (* ?x71 ?x721) (* 13.0 ?x2397)) (* ?x599 ?x3071)) (* ?x1477 ?x2250))))
 (let ((?x961 (- 2.0)))
 (let (($x1025 (<= (+ (+ (+ ?x721 (* 15.0 |v5:6|)) (* ?x2946 ?x3071)) (* 0.0 |v6:5|)) ?x961)))
 (let ((?x260 (* ?x496 |v7:4|)))
 (let (($x2110 (<= (+ (+ (+ (* ?x2096 ?x3138) (* ?x2749 ?x3138)) (* ?x961 ?x3138)) ?x260) ?x1633)))
 (let ((?x1765 (* ?x3044 |v7:4|)))
 (let (($x2979 (<= (+ (+ (+ (* 3.0 ?x273) (* 2.0 |v7:4|)) (* ?x2096 ?x721)) ?x1765) 2.0)))
 (let ((?x2906 (* ?x2503 ?x2397)))
 (let (($x1616 (<= (+ (+ (+ (* 6.0 ?x721) (* 20.0 ?x3071)) (* ?x1415 ?x2250)) ?x2906) 8.0)))
 (let ((?x2637 (* 2.0 |v7:4|)))
 (let (($x2593 (<= (+ (+ (+ (* 9.0 ?x721) (* 2.0 ?x2250)) (* ?x961 ?x3071)) ?x2637) 1.0)))
 (let (($x1560 (<= (+ (+ (+ (* 15.0 ?x273) ?x2568) (* 7.0 ?x2397)) (* ?x2572 ?x220)) 7.0)))
 (let (($x2665 (and $x1560 (<= (+ (+ (+ (* ?x1415 |v4:7|) (* 0.0 ?x3138)) ?x2410) ?x698) 9.0))))
 (let (($x138 (and (and $x2665 (and $x2593 $x1616)) (and (and $x2979 $x2110) (and $x1025 (<= ?x3176 ?x1709))))))
 (let (($x1161 (not (= |v0:11_st| (RMk1 val!6179)))))
 (let (($x1272 (not (= |v1:10_st| (RMk1 val!6178)))))
 (let (($x1346 (not (= |v2:9_st| (RMk1 val!6177)))))
 (let (($x2005 (not (= |v3:8_st| (RMk1 val!6176)))))
 (let (($x1367 (not (= |v8:3_st| (RMk1 val!6175)))))
 (let (($x3058 (not (= |v9:2_st| (RMk1 val!6174)))))
 (let (($x1294 (not (= |v10:1_st| (RMk1 val!6173)))))
 (let (($x2915 (not (= |v11:0_st| (RMk1 val!6172)))))
 (and $x2915 $x1294 $x3058 $x1367 $x2005 $x1346 $x1272 $x1161 (and (and (and $x138 $x3437) (and $x1854 $x2266)) $x1134)))))))))))))))))))))))))))))))))))))))))))))))))))))))))))))))))))))))))))))))))))))))))))))))))))))))))))))))))))))))))))))))))))))))))))))))))))))))
 )
 )
 )
 )
 )
 )
 )
 )
 )
 )
 )
 )
(check-sat)
